data/solutions/recovery/degenerate/moderate/flexible/degenerate_moderate_instance6/22.sol
Elapsed time: 0.04
Upper bound: 10593516.0
Planning weighted value: 78183530.0
C[0]=10593516.0
C[1]=10555757.0
C[2]=10369582.0
y[0]=2
y[1]=0
y[2]=2
y[3]=2
y[4]=0
y[5]=0
y[6]=2
y[7]=2
y[8]=2
y[9]=0
y[10]=0
y[11]=2
y[12]=2
y[13]=0
y[14]=1
y[15]=2
y[16]=1
y[17]=0
y[18]=2
y[19]=1
y[20]=1
y[21]=0
y[22]=1
y[23]=2
y[24]=1
y[25]=1
